p cnf 29 74
a 17 27 0
e 1 2 3 4 5 6 7 8 9 10 11 12 13 14 15 16 18 19 20 21 22 23 24 25 26 28 29 0
-1 2 -3 0
1 -2 -3 0
-1 -2 3 0
1 2 3 0
5 3 0
5 -4 0
-3 4 -5 0
8 -6 0
8 -7 0
6 7 -8 0
11 7 0
11 10 0
-7 -10 -11 0
-12 -9 0
-12 11 0
9 -11 12 0
13 -1 0
13 6 0
1 -6 -13 0
-14 12 0
-14 13 0
-12 -13 14 0
15 -8 0
15 -14 0
8 14 -15 0
17 -16 0
17 -6 0
16 6 -17 0
18 -3 0
18 17 0
3 -17 -18 0
15 -18 -19 0
-15 18 -19 0
15 18 19 0
-15 -18 19 0
-6 -16 -20 0
6 16 -20 0
-6 16 20 0
6 -16 20 0
21 16 0
21 -11 0
-16 11 -21 0
22 17 0
22 -21 0
-17 21 -22 0
20 -22 -23 0
-20 22 -23 0
20 22 23 0
-20 -22 23 0
-24 17 0
-24 -16 0
-17 16 24 0
25 23 0
25 24 0
-23 -24 -25 0
-11 26 0
11 26 0
27 -25 0
27 26 0
25 -26 -27 0
-28 -19 0
-28 -27 0
19 27 28 0
29 5 0
29 -28 0
-5 28 -29 0
-8 14 -18 10 0
23 -11 -5 0
-22 -7 16 -5 17 0
14 25 -11 0
-14 1 -8 -17 0
12 1 -22 -15 -25 0
27 26 -12 -1 -23 -13 2 0
29 0
